
###########################################################################
#
#                 Cambridge Crystallographic Data Centre
#                                CCDC 
# 
###########################################################################
#
#  This CIF contains data generated directly from one or more entries in
#  the Cambridge Structural Database and will include bibliographic, 
#  chemical, crystal, experimental, refinement, and atomic coordinate data,
#  as available.
#     
#  Copyright  2013  The Cambridge Crystallographic Data Centre
# 
#  This CIF is provided on the understanding that it is used for bona fide 
#  research purposes only.  It may contain copyright material of the CCDC
#  or of third parties, and may not be copied or further disseminated in 
#  any form, whether machine-readable or not, except for the purpose of 
#  generating routine backup copies on your local computer system.
# 
#  For further information about the CCDC, data deposition and data 
#  retrieval see <www.ccdc.cam.ac.uk>. Bona fide researchers may freely 
#  download  Mercury and enCIFer from this site to visualise CIF-encoded 
#  structures and to carry out CIF format checking respectively.
#
###########################################################################

data_CSD_CIF_ACSALA07
_audit_creation_date 2004-08-04
_audit_creation_method CSD-ConQuest-V1
_database_code_CSD ACSALA07
_database_code_depnum_ccdc_archive 'CCDC 195138'
_chemical_formula_sum 'C9 H8 O4'
_chemical_formula_moiety
;
C9 H8 O4
;
_journal_coden_Cambridge 440
_journal_volume 26
_journal_year 2002
_journal_page_first 1733
_journal_name_full 'New J.Chem. '
loop_
_publ_author_name
"C.C.Wilson"
_chemical_name_systematic
;
Acetylsalicylic acid
;
_chemical_name_common
;
Aspirin
;
_cell_volume    860.803
_exptl_crystal_colour 'colorless'
_exptl_crystal_density_diffrn 1.389
_exptl_special_details
;
polymorph I
analgesic, antipyretic and antiinflammatory agent

;
_exptl_crystal_description 'irregular prism'
_exptl_crystal_preparation 'water/ethanol'
_diffrn_ambient_temperature 300
_diffrn_radiation_probe 'neutron radiation'
#These two values have been output from a single CSD field.
_refine_ls_R_factor_gt 0.0873
_refine_ls_wR_factor_gt 0.0873
_symmetry_cell_setting monoclinic
_symmetry_space_group_name_H-M 'P 21/c'
_symmetry_Int_Tables_number 14
loop_
_symmetry_equiv_pos_site_id
_symmetry_equiv_pos_as_xyz
1 x,y,z
2 -x,1/2+y,1/2-z
3 -x,-y,-z
4 x,-1/2-y,-1/2+z
_cell_length_a 11.416(5)
_cell_length_b 6.598(2)
_cell_length_c 11.483(5)
_cell_angle_alpha 90
_cell_angle_beta 95.60(3)
_cell_angle_gamma 90
_cell_formula_units_Z 4
loop_
_atom_type_symbol
_atom_type_radius_bond
C 0.68
H 0.23
O 0.68
loop_
_atom_site_label
_atom_site_type_symbol
_atom_site_fract_x
_atom_site_fract_y
_atom_site_fract_z
C1 C 0.1530(6) 0.5638(12) 0.0678(6)
C2 C 0.2464(6) 0.4885(12) 0.0087(6)
C3 C 0.2982(6) 0.3070(13) 0.0415(8)
C4 C 0.2602(7) 0.1952(14) 0.1344(8)
C5 C 0.1693(7) 0.2697(13) 0.1918(7)
C6 C 0.1168(7) 0.4489(13) 0.1599(7)
C7 C 0.0904(6) 0.7582(11) 0.0382(6)
C8 C 0.3664(6) 0.7360(13) -0.0628(7)
C9 C 0.3966(10) 0.835(2) -0.172(1)
O1 O 0.1200(9) 0.8626(17) -0.0507(9)
O2 O 0.0096(8) 0.8126(15) 0.0955(9)
O3 O 0.2857(8) 0.5877(15) -0.0879(7)
O4 O 0.4018(9) 0.7794(18) 0.0354(9)
H1 H 0.3689(16) 0.247(3) -0.013(2)
H2 H 0.3028(16) 0.053(3) 0.163(2)
H3 H 0.1396(16) 0.177(3) 0.2700(17)
H4 H 0.0469(19) 0.508(3) 0.2061(18)
H5 H 0.459(2) 0.955(5) -0.149(2)
H6 H 0.324(3) 0.883(8) -0.228(3)
H7 H 0.432(5) 0.728(6) -0.230(3)
H8 H 0.0647(18) 0.993(4) -0.0657(17)
#END
